p cnf 60 218
-3 1 0
-3 2 0
-1 -2 3 0
-6 -4 0
-6 -5 0
4 5 6 0
6 7 -8 0
-6 -7 -8 0
6 -7 8 0
-6 7 8 0
5 -9 -10 0
-5 9 -10 0
5 9 10 0
-5 -9 10 0
-12 7 0
-12 11 0
-7 -11 12 0
-10 12 -13 0
10 -12 -13 0
-10 -12 13 0
10 12 13 0
-8 -13 -14 0
8 13 -14 0
-8 13 14 0
8 -13 14 0
14 -3 -15 0
-14 3 -15 0
14 3 15 0
-14 -3 15 0
-3 15 -16 0
3 -15 -16 0
-3 -15 16 0
3 15 16 0
-17 -1 0
-17 -16 0
1 16 17 0
-18 7 0
-18 2 0
-7 -2 18 0
-19 1 0
-19 -18 0
-1 18 19 0
20 19 0
20 -2 0
-19 2 -20 0
21 6 0
21 -12 0
-6 12 -21 0
21 11 -22 0
-21 -11 -22 0
21 -11 22 0
-21 11 22 0
-23 -20 0
-23 22 0
20 -22 23 0
24 -17 0
24 -23 0
17 23 -24 0
-9 -25 -26 0
9 25 -26 0
-9 25 26 0
9 -25 26 0
27 18 0
27 -7 0
-18 7 -27 0
28 -11 0
28 9 0
11 -9 -28 0
10 28 -29 0
-10 -28 -29 0
10 -28 29 0
-10 28 29 0
-27 29 -30 0
27 -29 -30 0
-27 -29 30 0
27 29 30 0
26 30 -31 0
-26 -30 -31 0
26 -30 31 0
-26 30 31 0
32 -18 0
32 21 0
18 -21 -32 0
-33 -32 0
-33 21 0
32 -21 33 0
25 -7 -34 0
-25 7 -34 0
25 7 34 0
-25 -7 34 0
35 33 0
35 -34 0
-33 34 -35 0
-31 35 -36 0
31 -35 -36 0
-31 -35 36 0
31 35 36 0
5 29 -37 0
-5 -29 -37 0
5 -29 37 0
-5 29 37 0
38 11 0
38 9 0
-11 -9 -38 0
39 10 0
39 -38 0
-10 38 -39 0
-1 39 -40 0
1 -39 -40 0
-1 -39 40 0
1 39 40 0
-41 37 0
-41 -40 0
-37 40 41 0
-42 -18 0
-42 -2 0
18 2 42 0
43 41 0
43 -42 0
-41 42 -43 0
-45 2 0
-45 -39 0
-2 39 45 0
-46 -44 0
-46 -45 0
44 45 46 0
47 -1 0
47 -18 0
1 18 -47 0
-48 -46 0
-48 47 0
46 -47 48 0
-49 -2 0
-49 -5 0
2 5 49 0
-50 -49 0
-50 19 0
49 -19 50 0
-51 -50 0
-51 -4 0
50 4 51 0
-52 48 0
-52 51 0
-48 -51 52 0
-9 50 -53 0
9 -50 -53 0
-9 -50 53 0
9 50 53 0
-55 -50 0
-55 -54 0
50 54 55 0
-56 -53 0
-56 -55 0
53 55 56 0
-57 -52 0
-57 -56 0
52 56 57 0
43 -57 -58 0
-43 57 -58 0
43 57 58 0
-43 -57 58 0
-59 -36 0
-59 58 0
36 -58 59 0
-60 -24 0
-60 59 0
24 -59 60 0
48 26 19 0
26 -29 7 3 0
60 3 0
-48 46 23 41 0
-41 59 7 -15 51 -4 0
5 -26 58 -46 -53 0
-31 -41 30 54 0
-48 -49 0
26 9 0
34 -22 2 23 0
-9 4 13 -32 0
13 -55 -45 37 0
31 57 -25 27 9 0
15 -52 -37 25 31 -8 0
-17 35 0
-45 -28 -50 0
18 38 57 -10 -9 0
26 -45 46 -37 -9 0
59 21 0
-4 53 0
32 -46 44 -33 0
43 -18 60 0
-37 52 4 44 18 0
16 -2 -42 -9 -38 -37 0
-18 -23 50 0
46 -30 51 0
-54 4 26 0
2 -40 34 0
-41 -59 29 -52 -56 -4 0
19 60 29 44 -26 43 0
-19 -18 0
58 -22 38 51 54 0
-40 -25 0
-16 5 0
-57 -32 56 13 0
4 -53 43 6 0
45 25 -8 -54 0
27 8 -55 -13 -20 10 0
32 -34 0
51 -47 38 -18 0
16 39 0
-59 19 -45 -16 0
17 45 57 0
-53 -25 0
20 22 0
-6 29 -13 0
13 40 -9 8 48 0
-48 -50 1 -30 -29 54 0
47 -24 -22 -58 -25 0
-44 -15 -17 9 0
60 0
